InboundTrucks  = 12;
OutboundTrucks = 8;
ReleaseTime    = [0,1,0,3,2,5,4,6,1,2,7,3];
UnloadTime     = [3,2,4,2,5,1,3,4,2,3,2,4];
LoadTime       = [2,3,2,4,3,2,3,2];
TransferTime   = [| 1,2,1,3,2,1,2,1 | 2,1,3,1,2,3,1,2 | 1,1,2,2,1,2,2,1 | 3,2,1,2,3,1,2,3 | 2,3,2,1,2,2,1,2 | 1,2,3,2,1,3,2,1 | 2,1,2,3,2,1,3,2 | 3,2,1,1,3,2,1,3 | 1,2,2,1,2,1,2,1 | 2,1,3,2,1,2,1,2 | 1,3,1,2,3,1,2,1 | 2,2,2,1,2,2,1,2 |];
